


































































































46 2 70 23 63 31 
1 67 39 38 6 
19 58 29 61 37 
10 8 25 52 66 
72 12 14 65 51 
13 9 22 5 75 
57 74 76 21 36 
55 11 27 18 
49 16 41 34 26 
62 42 60 48 
40 7 56 3 24 
53 30 17 54 4 
71 64 32 
45 69 20 28 44 
0 33 47 50 15 
68 35 43 73 59 
